Welcome to the CBC MILP Solver 
Version: Trunk
Build Date: Apr 16 2020 

Starting solution of the Linear programming relaxation problem using Primal Simplex

Using Python-MIP package version 1.8.1
Machines:  3 Jobs:  3
Order: 
Job  0 : machine 1 ( 7 ) machine 2 ( 7 ) machine 0 ( 1 ) 
Job  1 : machine 1 ( 4 ) machine 0 ( 3 ) machine 2 ( 7 ) 
Job  2 : machine 1 ( 7 ) machine 2 ( 6 ) machine 0 ( 2 ) 
K:  33
Job  0 , e: machine  0 ( 14 ) machine  1 ( 0 ) machine  2 ( 7 ) 
Job  1 , e: machine  0 ( 4 ) machine  1 ( 0 ) machine  2 ( 7 ) 
Job  2 , e: machine  0 ( 13 ) machine  1 ( 0 ) machine  2 ( 7 ) 
Job  0 , f: machine  0 ( 0 ) machine  1 ( 8 ) machine  2 ( 1 ) 
Job  1 , f: machine  0 ( 7 ) machine  1 ( 10 ) machine  2 ( 0 ) 
Job  2 , f: machine  0 ( 0 ) machine  1 ( 8 ) machine  2 ( 2 ) 
EST and LST:
Job: 0 Machine: 0 EST: 14 LST: 32
Job: 0 Machine: 1 EST: 0 LST: 18
Job: 0 Machine: 2 EST: 7 LST: 25
Job: 1 Machine: 0 EST: 4 LST: 23
Job: 1 Machine: 1 EST: 0 LST: 19
Job: 1 Machine: 2 EST: 7 LST: 26
Job: 2 Machine: 0 EST: 13 LST: 31
Job: 2 Machine: 1 EST: 0 LST: 18
Job: 2 Machine: 2 EST: 7 LST: 25
Order:
Job: 0 Machine: 0 = 2 
Job: 0 Machine: 1 = 0 
Job: 0 Machine: 2 = 1 
Job: 1 Machine: 0 = 1 
Job: 1 Machine: 1 = 0 
Job: 1 Machine: 2 = 2 
Job: 2 Machine: 0 = 2 
Job: 2 Machine: 1 = 0 
Job: 2 Machine: 2 = 1 
Distances:
Job 0, Machine 1 -> Machine 2: distance 7
Job 0, Machine 1 -> Machine 0: distance 14
Job 0, Machine 2 -> Machine 0: distance 7
Job 1, Machine 1 -> Machine 0: distance 4
Job 1, Machine 1 -> Machine 2: distance 7
Job 1, Machine 0 -> Machine 2: distance 3
Job 2, Machine 1 -> Machine 2: distance 7
Job 2, Machine 1 -> Machine 0: distance 13
Job 2, Machine 2 -> Machine 0: distance 6
McCormic linearization
[(0, 1), (1, 2), (0, 2), (2, 1), (2, 0), (2, 2), (1, 0), (1, 1)]
obj:  0.0
solutions:  1
+ 0.14285714285714285x(0,1) + 0.14285714285714285x(2,1) 
C:  18.5
x(0,0) = 17.50	 x(0,1) = 3.50	 x(0,2) = 10.50	 
x(1,0) = 8.50	 x(1,1) = 4.50	 x(1,2) = 11.50	 
x(2,0) = 16.50	 x(2,1) = 3.50	 x(2,2) = 10.50	 
y(0,1,0) = 0.00	 y(1,0,0) = 1.00	 
y(0,2,0) = 0.90	 y(2,0,0) = 0.10	 
y(1,2,0) = 0.59	 y(2,1,0) = 0.41	 
y(0,1,1) = 0.22	 y(1,0,1) = 0.78	 
y(0,2,1) = 0.50	 y(2,0,1) = 0.50	 
y(1,2,1) = 0.36	 y(2,1,1) = 0.64	 
y(0,1,2) = 0.50	 y(1,0,2) = 0.50	 
y(0,2,2) = 0.42	 y(2,0,2) = 0.58	 
y(1,2,2) = 0.50	 y(2,1,2) = 0.50	 
obj:  0.638095238095238
solutions:  1
+ 0.06666666666666668x(0,1) + 0.06666666666666665x(2,1) + 0.0380952380952381x(1,1) 
[(0, 1), (1, 2), (2, 1), (2, 0), (1, 1), (2, 2), (1, 0), (0, 2)]
cliques:  1 mip: 20
C:  20.983660130718953
x(0,0) = 19.87	 x(0,1) = 5.87	 x(0,2) = 12.87	 
x(1,0) = 9.51	 x(1,1) = 5.51	 x(1,2) = 12.51	 
x(2,0) = 18.98	 x(2,1) = 5.98	 x(2,2) = 12.98	 
y(0,1,0) = 0.00	 y(1,0,0) = 1.00	 
y(0,2,0) = 0.06	 y(2,0,0) = 0.94	 
y(1,2,0) = 0.62	 y(2,1,0) = 0.38	 
y(0,1,1) = 0.71	 y(1,0,1) = 0.29	 
y(0,2,1) = 0.31	 y(2,0,1) = 0.69	 
y(1,2,1) = 0.30	 y(2,1,1) = 0.70	 
y(0,1,2) = 0.31	 y(1,0,2) = 0.69	 
y(0,2,2) = 0.25	 y(2,0,2) = 0.75	 
y(1,2,2) = 0.71	 y(2,1,2) = 0.29	 
obj:  0.9361009361009358
solutions:  1
+ 0.02564102564102562x(1,2) + 0.021978021978021976x(2,2) + 0.025641025641025654x(0,2) 
[(1, 2), (0, 1), (2, 1), (2, 0), (1, 1), (2, 2), (1, 0), (0, 2)]
cliques:  1 mip: 52
C:  22.46394129979036
x(0,0) = 21.46	 x(0,1) = 7.46	 x(0,2) = 14.46	 
x(1,0) = 10.82	 x(1,1) = 3.56	 x(1,2) = 13.82	 
x(2,0) = 18.50	 x(2,1) = 5.50	 x(2,2) = 12.50	 
y(0,1,0) = 0.00	 y(1,0,0) = 1.00	 
y(0,2,0) = 0.00	 y(2,0,0) = 1.00	 
y(1,2,0) = 0.80	 y(2,1,0) = 0.20	 
y(0,1,1) = 0.02	 y(1,0,1) = 0.98	 
y(0,2,1) = 0.20	 y(2,0,1) = 0.80	 
y(1,2,1) = 0.74	 y(2,1,1) = 0.26	 
y(0,1,2) = 0.24	 y(1,0,2) = 0.76	 
y(0,2,2) = 0.64	 y(2,0,2) = 0.36	 
y(1,2,2) = 0.48	 y(2,1,2) = 0.52	 
obj:  1.0000000000000002
erro
[(1, 2), (0, 1), (0, 2), (2, 1), (2, 0), (2, 2), (1, 0), (1, 1)]
cliques:  0 mip: 48
C:  23.438914149548797
x(0,0) = 22.44	 x(0,1) = 4.13	 x(0,2) = 11.13	 
x(1,0) = 13.44	 x(1,1) = 8.18	 x(1,2) = 16.44	 
x(2,0) = 19.33	 x(2,1) = 6.19	 x(2,2) = 13.33	 
y(0,1,0) = 0.00	 y(1,0,0) = 1.00	 
y(0,2,0) = 0.00	 y(2,0,0) = 1.00	 
y(1,2,0) = 0.99	 y(2,1,0) = 0.01	 
y(0,1,1) = 0.75	 y(1,0,1) = 0.25	 
y(0,2,1) = 0.70	 y(2,0,1) = 0.30	 
y(1,2,1) = 0.73	 y(2,1,1) = 0.27	 
y(0,1,2) = 0.93	 y(1,0,2) = 0.07	 
y(0,2,2) = 0.61	 y(2,0,2) = 0.39	 
y(1,2,2) = 0.61	 y(2,1,2) = 0.39	 
obj:  1.0
erro
[(1, 2), (0, 1), (2, 1), (1, 1), (2, 2), (0, 2)]
cliques:  0 mip: 41
C:  24.0
x(0,0) = 23.00	 x(0,1) = 5.93	 x(0,2) = 12.93	 
x(1,0) = 14.00	 x(1,1) = 7.78	 x(1,2) = 17.00	 
x(2,0) = 18.93	 x(2,1) = 5.47	 x(2,2) = 12.93	 
y(0,1,0) = 0.00	 y(1,0,0) = 1.00	 
y(0,2,0) = 0.00	 y(2,0,0) = 1.00	 
y(1,2,0) = 1.00	 y(2,1,0) = 0.00	 
y(0,1,1) = 0.56	 y(1,0,1) = 0.44	 
y(0,2,1) = 0.52	 y(2,0,1) = 0.48	 
y(1,2,1) = 0.56	 y(2,1,1) = 0.44	 
y(0,1,2) = 0.88	 y(1,0,2) = 0.12	 
y(0,2,2) = 0.44	 y(2,0,2) = 0.56	 
y(1,2,2) = 0.12	 y(2,1,2) = 0.88	 
obj:  1.05152907964032
erro
[(0, 1), (1, 2), (2, 1), (1, 1), (2, 2), (0, 2)]
cliques:  0 mip: 33
C:  24.18206469825051
x(0,0) = 23.18	 x(0,1) = 4.83	 x(0,2) = 11.83	 
x(1,0) = 14.18	 x(1,1) = 8.96	 x(1,2) = 17.18	 
x(2,0) = 20.11	 x(2,1) = 6.33	 x(2,2) = 14.11	 
y(0,1,0) = 0.00	 y(1,0,0) = 1.00	 
y(0,2,0) = 0.00	 y(2,0,0) = 1.00	 
y(1,2,0) = 1.00	 y(2,1,0) = 0.00	 
y(0,1,1) = 0.76	 y(1,0,1) = 0.24	 
y(0,2,1) = 0.58	 y(2,0,1) = 0.42	 
y(1,2,1) = 0.62	 y(2,1,1) = 0.38	 
y(0,1,2) = 0.93	 y(1,0,2) = 0.07	 
y(0,2,2) = 0.62	 y(2,0,2) = 0.38	 
y(1,2,2) = 0.13	 y(2,1,2) = 0.87	 
obj:  1.054080815331972
erro
[(0, 1), (1, 2), (2, 1), (1, 1), (2, 2), (0, 2)]
cliques:  0 mip: 48
C:  25.000000000000004
x(0,0) = 20.38	 x(0,1) = 6.38	 x(0,2) = 13.38	 
x(1,0) = 12.95	 x(1,1) = 8.95	 x(1,2) = 15.95	 
x(2,0) = 17.29	 x(2,1) = 4.29	 x(2,2) = 11.29	 
y(0,1,0) = 0.00	 y(1,0,0) = 1.00	 
y(0,2,0) = 0.00	 y(2,0,0) = 1.00	 
y(1,2,0) = 1.00	 y(2,1,0) = 0.00	 
y(0,1,1) = 0.70	 y(1,0,1) = 0.30	 
y(0,2,1) = 0.20	 y(2,0,1) = 0.80	 
y(1,2,1) = 0.14	 y(2,1,1) = 0.86	 
y(0,1,2) = 0.82	 y(1,0,2) = 0.18	 
y(0,2,2) = 0.52	 y(2,0,2) = 0.48	 
y(1,2,2) = 0.06	 y(2,1,2) = 0.94	 
obj:  1.0000000000000007
erro
[(0, 1), (1, 2), (0, 2), (2, 1), (2, 2), (1, 1)]
cliques:  0 mip: 38
C:  25.000000000000004
x(0,0) = 18.69	 x(0,1) = 4.69	 x(0,2) = 11.69	 
x(1,0) = 14.83	 x(1,1) = 10.83	 x(1,2) = 17.83	 
x(2,0) = 18.83	 x(2,1) = 5.83	 x(2,2) = 12.83	 
y(0,1,0) = 0.00	 y(1,0,0) = 1.00	 
y(0,2,0) = 0.11	 y(2,0,0) = 0.89	 
y(1,2,0) = 1.00	 y(2,1,0) = 0.00	 
y(0,1,1) = 0.97	 y(1,0,1) = 0.03	 
y(0,2,1) = 0.33	 y(2,0,1) = 0.67	 
y(1,2,1) = 0.33	 y(2,1,1) = 0.67	 
y(0,1,2) = 0.97	 y(1,0,2) = 0.03	 
y(0,2,2) = 0.76	 y(2,0,2) = 0.24	 
y(1,2,2) = 0.10	 y(2,1,2) = 0.90	 
obj:  1.0388434112609386
erro
[(0, 1), (1, 2), (0, 0), (2, 1), (2, 0), (1, 1), (2, 2), (0, 2)]
cliques:  0 mip: 38
C:  25.0
x(0,0) = 20.76	 x(0,1) = 5.51	 x(0,2) = 13.76	 
x(1,0) = 15.00	 x(1,1) = 10.12	 x(1,2) = 18.00	 
x(2,0) = 18.76	 x(2,1) = 3.84	 x(2,2) = 12.76	 
y(0,1,0) = 0.00	 y(1,0,0) = 1.00	 
y(0,2,0) = 0.00	 y(2,0,0) = 1.00	 
y(1,2,0) = 1.00	 y(2,1,0) = 0.00	 
y(0,1,1) = 0.82	 y(1,0,1) = 0.18	 
y(0,2,1) = 0.21	 y(2,0,1) = 0.79	 
y(1,2,1) = 0.03	 y(2,1,1) = 0.97	 
y(0,1,2) = 0.89	 y(1,0,2) = 0.11	 
y(0,2,2) = 0.46	 y(2,0,2) = 0.54	 
y(1,2,2) = 0.16	 y(2,1,2) = 0.84	 
obj:  1.0086172529883501
erro
[(0, 1), (1, 2), (0, 2), (2, 1), (2, 2), (1, 1)]
cliques:  0 mip: 35
C:  25.000000000000007
x(0,0) = 20.58	 x(0,1) = 4.93	 x(0,2) = 13.58	 
x(1,0) = 15.00	 x(1,1) = 10.64	 x(1,2) = 18.00	 
x(2,0) = 18.58	 x(2,1) = 4.17	 x(2,2) = 12.58	 
y(0,1,0) = 0.00	 y(1,0,0) = 1.00	 
y(0,2,0) = 0.00	 y(2,0,0) = 1.00	 
y(1,2,0) = 1.00	 y(2,1,0) = 0.00	 
y(0,1,1) = 0.93	 y(1,0,1) = 0.07	 
y(0,2,1) = 0.54	 y(2,0,1) = 0.46	 
y(1,2,1) = 0.05	 y(2,1,1) = 0.95	 
y(0,1,2) = 0.90	 y(1,0,2) = 0.10	 
y(0,2,2) = 0.49	 y(2,0,2) = 0.51	 
y(1,2,2) = 0.14	 y(2,1,2) = 0.86	 
obj:  1.01217618845907
erro
[(0, 1), (1, 2), (2, 1), (1, 1), (2, 2), (0, 2)]
cliques:  0 mip: 34
C:  24.999999999999996
x(0,0) = 23.00	 x(0,1) = 6.42	 x(0,2) = 13.42	 
x(1,0) = 15.00	 x(1,1) = 9.11	 x(1,2) = 18.00	 
x(2,0) = 21.00	 x(2,1) = 3.37	 x(2,2) = 11.04	 
y(0,1,0) = 0.00	 y(1,0,0) = 1.00	 
y(0,2,0) = 0.00	 y(2,0,0) = 1.00	 
y(1,2,0) = 1.00	 y(2,1,0) = 0.00	 
y(0,1,1) = 0.62	 y(1,0,1) = 0.38	 
y(0,2,1) = 0.45	 y(2,0,1) = 0.55	 
y(1,2,1) = 0.05	 y(2,1,1) = 0.95	 
y(0,1,2) = 0.90	 y(1,0,2) = 0.10	 
y(0,2,2) = 0.51	 y(2,0,2) = 0.49	 
y(1,2,2) = 0.04	 y(2,1,2) = 0.96	 
obj:  0.9999999999999998
erro
[(0, 1), (1, 2), (0, 2), (2, 1), (2, 2), (1, 1)]
cliques:  0 mip: 37
C:  25.0
x(0,0) = 20.00	 x(0,1) = 6.00	 x(0,2) = 13.00	 
x(1,0) = 15.00	 x(1,1) = 8.61	 x(1,2) = 18.00	 
x(2,0) = 18.00	 x(2,1) = 4.08	 x(2,2) = 11.40	 
y(0,1,0) = 0.00	 y(1,0,0) = 1.00	 
y(0,2,0) = 0.00	 y(2,0,0) = 1.00	 
y(1,2,0) = 1.00	 y(2,1,0) = 0.00	 
y(0,1,1) = 0.52	 y(1,0,1) = 0.48	 
y(0,2,1) = 0.41	 y(2,0,1) = 0.59	 
y(1,2,1) = 0.10	 y(2,1,1) = 0.90	 
y(0,1,2) = 0.92	 y(1,0,2) = 0.08	 
y(0,2,2) = 0.57	 y(2,0,2) = 0.43	 
y(1,2,2) = 0.00	 y(2,1,2) = 1.00	 
obj:  1.0
erro
[(0, 1), (1, 2), (2, 1), (1, 1), (2, 2), (0, 2)]
cliques:  0 mip: 36
C:  25.0
x(0,0) = 22.48	 x(0,1) = 5.46	 x(0,2) = 12.46	 
x(1,0) = 15.00	 x(1,1) = 9.75	 x(1,2) = 18.00	 
x(2,0) = 20.48	 x(2,1) = 3.97	 x(2,2) = 11.83	 
y(0,1,0) = 0.00	 y(1,0,0) = 1.00	 
y(0,2,0) = 0.00	 y(2,0,0) = 1.00	 
y(1,2,0) = 1.00	 y(2,1,0) = 0.00	 
y(0,1,1) = 0.75	 y(1,0,1) = 0.25	 
y(0,2,1) = 0.22	 y(2,0,1) = 0.78	 
y(1,2,1) = 0.31	 y(2,1,1) = 0.69	 
y(0,1,2) = 0.94	 y(1,0,2) = 0.06	 
y(0,2,2) = 0.65	 y(2,0,2) = 0.35	 
y(1,2,2) = 0.02	 y(2,1,2) = 0.98	 
obj:  1.0
erro
[(0, 1), (1, 2), (0, 2), (2, 1), (2, 2), (1, 1)]
cliques:  0 mip: 37
C:  24.999999999999996
x(0,0) = 23.83	 x(0,1) = 6.21	 x(0,2) = 13.21	 
x(1,0) = 15.00	 x(1,1) = 8.25	 x(1,2) = 18.00	 
x(2,0) = 21.83	 x(2,1) = 4.22	 x(2,2) = 11.33	 
y(0,1,0) = 0.00	 y(1,0,0) = 1.00	 
y(0,2,0) = 0.00	 y(2,0,0) = 1.00	 
y(1,2,0) = 1.00	 y(2,1,0) = 0.00	 
y(0,1,1) = 0.45	 y(1,0,1) = 0.55	 
y(0,2,1) = 0.40	 y(2,0,1) = 0.60	 
y(1,2,1) = 0.12	 y(2,1,1) = 0.88	 
y(0,1,2) = 0.91	 y(1,0,2) = 0.09	 
y(0,2,2) = 0.54	 y(2,0,2) = 0.46	 
y(1,2,2) = 0.01	 y(2,1,2) = 0.99	 
obj:  1.009586823341023
erro
[(0, 1), (1, 2), (0, 2), (2, 1), (2, 2), (1, 1)]
cliques:  0 mip: 38
C:  24.999999999999996
x(0,0) = 23.78	 x(0,1) = 6.72	 x(0,2) = 13.72	 
x(1,0) = 15.00	 x(1,1) = 8.77	 x(1,2) = 18.00	 
x(2,0) = 22.11	 x(2,1) = 4.24	 x(2,2) = 11.24	 
y(0,1,0) = 0.00	 y(1,0,0) = 1.00	 
y(0,2,0) = 0.11	 y(2,0,0) = 0.89	 
y(1,2,0) = 1.00	 y(2,1,0) = 0.00	 
y(0,1,1) = 0.55	 y(1,0,1) = 0.45	 
y(0,2,1) = 0.21	 y(2,0,1) = 0.79	 
y(1,2,1) = 0.30	 y(2,1,1) = 0.70	 
y(0,1,2) = 0.80	 y(1,0,2) = 0.20	 
y(0,2,2) = 0.47	 y(2,0,2) = 0.53	 
y(1,2,2) = 0.05	 y(2,1,2) = 0.95	 
obj:  1.0604164608277287
erro
[(0, 1), (1, 2), (0, 0), (0, 2), (2, 1), (2, 0), (2, 2), (1, 1)]
cliques:  0 mip: 42
C:  24.999999999999996
x(0,0) = 23.88	 x(0,1) = 7.28	 x(0,2) = 14.28	 
x(1,0) = 12.61	 x(1,1) = 8.61	 x(1,2) = 15.61	 
x(2,0) = 19.04	 x(2,1) = 3.24	 x(2,2) = 12.08	 
y(0,1,0) = 0.00	 y(1,0,0) = 1.00	 
y(0,2,0) = 0.00	 y(2,0,0) = 1.00	 
y(1,2,0) = 1.00	 y(2,1,0) = 0.00	 
y(0,1,1) = 0.52	 y(1,0,1) = 0.48	 
y(0,2,1) = 0.21	 y(2,0,1) = 0.79	 
y(1,2,1) = 0.20	 y(2,1,1) = 0.80	 
y(0,1,2) = 0.77	 y(1,0,2) = 0.23	 
y(0,2,2) = 0.37	 y(2,0,2) = 0.63	 
y(1,2,2) = 0.13	 y(2,1,2) = 0.87	 
obj:  1.0288733644138213
erro
[(0, 1), (1, 2), (2, 1), (1, 1), (2, 2), (0, 2)]
cliques:  0 mip: 41
C:  24.999999999999996
x(0,0) = 22.05	 x(0,1) = 5.46	 x(0,2) = 12.46	 
x(1,0) = 13.76	 x(1,1) = 9.76	 x(1,2) = 16.76	 
x(2,0) = 20.05	 x(2,1) = 4.65	 x(2,2) = 12.21	 
y(0,1,0) = 0.00	 y(1,0,0) = 1.00	 
y(0,2,0) = 0.00	 y(2,0,0) = 1.00	 
y(1,2,0) = 1.00	 y(2,1,0) = 0.00	 
y(0,1,1) = 0.75	 y(1,0,1) = 0.25	 
y(0,2,1) = 0.45	 y(2,0,1) = 0.55	 
y(1,2,1) = 0.28	 y(2,1,1) = 0.72	 
y(0,1,2) = 0.89	 y(1,0,2) = 0.11	 
y(0,2,2) = 0.55	 y(2,0,2) = 0.45	 
y(1,2,2) = 0.07	 y(2,1,2) = 0.93	 
obj:  1.0177360086666973
erro
[(0, 1), (1, 2), (0, 2), (2, 1), (2, 2), (1, 1)]
cliques:  0 mip: 38
C:  25.000000000000007
x(0,0) = 21.61	 x(0,1) = 4.38	 x(0,2) = 11.38	 
x(1,0) = 14.49	 x(1,1) = 10.49	 x(1,2) = 18.00	 
x(2,0) = 19.61	 x(2,1) = 4.82	 x(2,2) = 12.26	 
y(0,1,0) = 0.00	 y(1,0,0) = 1.00	 
y(0,2,0) = 0.00	 y(2,0,0) = 1.00	 
y(1,2,0) = 1.00	 y(2,1,0) = 0.00	 
y(0,1,1) = 0.90	 y(1,0,1) = 0.10	 
y(0,2,1) = 0.62	 y(2,0,1) = 0.38	 
y(1,2,1) = 0.24	 y(2,1,1) = 0.76	 
y(0,1,2) = 0.98	 y(1,0,2) = 0.02	 
y(0,2,2) = 0.76	 y(2,0,2) = 0.24	 
y(1,2,2) = 0.01	 y(2,1,2) = 0.99	 
obj:  1.012691689440495
erro
[(0, 1), (1, 2), (0, 2), (2, 1), (2, 2), (1, 1)]
cliques:  0 mip: 37
C:  25.000000000000004
x(0,0) = 21.91	 x(0,1) = 6.26	 x(0,2) = 13.26	 
x(1,0) = 13.31	 x(1,1) = 9.31	 x(1,2) = 18.00	 
x(2,0) = 19.91	 x(2,1) = 4.46	 x(2,2) = 12.48	 
y(0,1,0) = 0.00	 y(1,0,0) = 1.00	 
y(0,2,0) = 0.00	 y(2,0,0) = 1.00	 
y(1,2,0) = 1.00	 y(2,1,0) = 0.00	 
y(0,1,1) = 0.66	 y(1,0,1) = 0.34	 
y(0,2,1) = 0.32	 y(2,0,1) = 0.68	 
y(1,2,1) = 0.31	 y(2,1,1) = 0.69	 
y(0,1,2) = 0.67	 y(1,0,2) = 0.33	 
y(0,2,2) = 0.53	 y(2,0,2) = 0.47	 
y(1,2,2) = 0.12	 y(2,1,2) = 0.88	 
obj:  1.0689313085305099
erro
[(0, 1), (1, 2), (0, 2), (2, 1), (2, 2), (1, 1)]
cliques:  0 mip: 39
C:  25.0
x(0,0) = 22.02	 x(0,1) = 6.60	 x(0,2) = 13.60	 
x(1,0) = 13.09	 x(1,1) = 9.09	 x(1,2) = 16.98	 
x(2,0) = 20.02	 x(2,1) = 3.21	 x(2,2) = 11.54	 
y(0,1,0) = 0.00	 y(1,0,0) = 1.00	 
y(0,2,0) = 0.00	 y(2,0,0) = 1.00	 
y(1,2,0) = 1.00	 y(2,1,0) = 0.00	 
y(0,1,1) = 0.62	 y(1,0,1) = 0.38	 
y(0,2,1) = 0.28	 y(2,0,1) = 0.72	 
y(1,2,1) = 0.29	 y(2,1,1) = 0.71	 
y(0,1,2) = 0.76	 y(1,0,2) = 0.24	 
y(0,2,2) = 0.49	 y(2,0,2) = 0.51	 
y(1,2,2) = 0.13	 y(2,1,2) = 0.87	 
obj:  1.0
erro
[(0, 1), (1, 2), (0, 2), (2, 1), (2, 2), (1, 1)]
cliques:  0 mip: 39
C:  24.999999999999996
x(0,0) = 20.42	 x(0,1) = 5.77	 x(0,2) = 12.77	 
x(1,0) = 13.80	 x(1,1) = 9.80	 x(1,2) = 18.00	 
x(2,0) = 18.42	 x(2,1) = 4.85	 x(2,2) = 11.85	 
y(0,1,0) = 0.00	 y(1,0,0) = 1.00	 
y(0,2,0) = 0.00	 y(2,0,0) = 1.00	 
y(1,2,0) = 1.00	 y(2,1,0) = 0.00	 
y(0,1,1) = 0.76	 y(1,0,1) = 0.24	 
y(0,2,1) = 0.37	 y(2,0,1) = 0.63	 
y(1,2,1) = 0.36	 y(2,1,1) = 0.64	 
y(0,1,2) = 0.79	 y(1,0,2) = 0.21	 
y(0,2,2) = 0.34	 y(2,0,2) = 0.66	 
y(1,2,2) = 0.02	 y(2,1,2) = 0.98	 
obj:  1.0493352651003391
erro
[(0, 1), (1, 2), (2, 1), (1, 1), (2, 2), (0, 2)]
cliques:  0 mip: 37
C:  24.999999999999996
x(0,0) = 23.56	 x(0,1) = 6.65	 x(0,2) = 13.94	 
x(1,0) = 13.06	 x(1,1) = 9.06	 x(1,2) = 17.20	 
x(2,0) = 19.75	 x(2,1) = 3.79	 x(2,2) = 11.67	 
y(0,1,0) = 0.00	 y(1,0,0) = 1.00	 
y(0,2,0) = 0.00	 y(2,0,0) = 1.00	 
y(1,2,0) = 1.00	 y(2,1,0) = 0.00	 
y(0,1,1) = 0.61	 y(1,0,1) = 0.39	 
y(0,2,1) = 0.27	 y(2,0,1) = 0.73	 
y(1,2,1) = 0.27	 y(2,1,1) = 0.73	 
y(0,1,2) = 0.85	 y(1,0,2) = 0.15	 
y(0,2,2) = 0.44	 y(2,0,2) = 0.56	 
y(1,2,2) = 0.12	 y(2,1,2) = 0.88	 
obj:  1.0412296061936042
erro
[(0, 1), (1, 2), (0, 2), (2, 1), (2, 2), (1, 1)]
cliques:  0 mip: 43
C:  24.999999999999996
x(0,0) = 22.59	 x(0,1) = 6.46	 x(0,2) = 14.08	 
x(1,0) = 13.24	 x(1,1) = 9.24	 x(1,2) = 17.98	 
x(2,0) = 16.80	 x(2,1) = 3.70	 x(2,2) = 10.80	 
y(0,1,0) = 0.00	 y(1,0,0) = 1.00	 
y(0,2,0) = 0.00	 y(2,0,0) = 1.00	 
y(1,2,0) = 1.00	 y(2,1,0) = 0.00	 
y(0,1,1) = 0.68	 y(1,0,1) = 0.32	 
y(0,2,1) = 0.29	 y(2,0,1) = 0.71	 
y(1,2,1) = 0.29	 y(2,1,1) = 0.71	 
y(0,1,2) = 0.86	 y(1,0,2) = 0.14	 
y(0,2,2) = 0.28	 y(2,0,2) = 0.72	 
y(1,2,2) = 0.02	 y(2,1,2) = 0.98	 
obj:  1.0289638581194178
erro
[(0, 1), (1, 2), (2, 1), (1, 1), (2, 2), (0, 2)]
cliques:  0 mip: 43
C:  24.999999999999996
x(0,0) = 20.92	 x(0,1) = 4.90	 x(0,2) = 11.90	 
x(1,0) = 13.94	 x(1,1) = 9.94	 x(1,2) = 18.00	 
x(2,0) = 18.92	 x(2,1) = 5.11	 x(2,2) = 12.92	 
y(0,1,0) = 0.00	 y(1,0,0) = 1.00	 
y(0,2,0) = 0.00	 y(2,0,0) = 1.00	 
y(1,2,0) = 1.00	 y(2,1,0) = 0.00	 
y(0,1,1) = 0.79	 y(1,0,1) = 0.21	 
y(0,2,1) = 0.51	 y(2,0,1) = 0.49	 
y(1,2,1) = 0.30	 y(2,1,1) = 0.70	 
y(0,1,2) = 0.76	 y(1,0,2) = 0.24	 
y(0,2,2) = 0.65	 y(2,0,2) = 0.35	 
y(1,2,2) = 0.15	 y(2,1,2) = 0.85	 
obj:  1.045599084466736
erro
[(0, 1), (1, 2), (0, 2), (2, 1), (2, 2), (1, 1)]
cliques:  0 mip: 39
C:  24.999999999999996
x(0,0) = 20.19	 x(0,1) = 6.19	 x(0,2) = 13.19	 
x(1,0) = 11.79	 x(1,1) = 7.79	 x(1,2) = 16.74	 
x(2,0) = 18.19	 x(2,1) = 4.36	 x(2,2) = 12.19	 
y(0,1,0) = 0.00	 y(1,0,0) = 1.00	 
y(0,2,0) = 0.00	 y(2,0,0) = 1.00	 
y(1,2,0) = 1.00	 y(2,1,0) = 0.00	 
y(0,1,1) = 0.65	 y(1,0,1) = 0.35	 
y(0,2,1) = 0.28	 y(2,0,1) = 0.72	 
y(1,2,1) = 0.48	 y(2,1,1) = 0.52	 
y(0,1,2) = 0.76	 y(1,0,2) = 0.24	 
y(0,2,2) = 0.46	 y(2,0,2) = 0.54	 
y(1,2,2) = 0.08	 y(2,1,2) = 0.92	 
obj:  1.0
erro
[(0, 1), (1, 2), (2, 1), (1, 1), (2, 2), (0, 2)]
cliques:  0 mip: 35
C:  24.999999999999996
x(0,0) = 23.96	 x(0,1) = 7.11	 x(0,2) = 15.09	 
x(1,0) = 12.99	 x(1,1) = 8.99	 x(1,2) = 17.62	 
x(2,0) = 16.27	 x(2,1) = 2.75	 x(2,2) = 10.27	 
y(0,1,0) = 0.00	 y(1,0,0) = 1.00	 
y(0,2,0) = 0.02	 y(2,0,0) = 0.98	 
y(1,2,0) = 1.00	 y(2,1,0) = 0.00	 
y(0,1,1) = 0.60	 y(1,0,1) = 0.40	 
y(0,2,1) = 0.24	 y(2,0,1) = 0.76	 
y(1,2,1) = 0.14	 y(2,1,1) = 0.86	 
y(0,1,2) = 0.82	 y(1,0,2) = 0.18	 
y(0,2,2) = 0.17	 y(2,0,2) = 0.83	 
y(1,2,2) = 0.03	 y(2,1,2) = 0.97	 
obj:  0.9999999999999993
erro
[(0, 1), (1, 2), (2, 1), (1, 1), (2, 2), (0, 2)]
cliques:  0 mip: 44
C:  24.999999999999996
x(0,0) = 22.01	 x(0,1) = 6.88	 x(0,2) = 15.01	 
x(1,0) = 12.67	 x(1,1) = 8.67	 x(1,2) = 17.89	 
x(2,0) = 21.76	 x(2,1) = 3.97	 x(2,2) = 11.23	 
y(0,1,0) = 0.00	 y(1,0,0) = 1.00	 
y(0,2,0) = 0.09	 y(2,0,0) = 0.91	 
y(1,2,0) = 1.00	 y(2,1,0) = 0.00	 
y(0,1,1) = 0.53	 y(1,0,1) = 0.47	 
y(0,2,1) = 0.26	 y(2,0,1) = 0.74	 
y(1,2,1) = 0.26	 y(2,1,1) = 0.74	 
y(0,1,2) = 0.69	 y(1,0,2) = 0.31	 
y(0,2,2) = 0.28	 y(2,0,2) = 0.72	 
y(1,2,2) = 0.10	 y(2,1,2) = 0.90	 
obj:  1.054008534392908
erro
[(0, 1), (1, 2), (2, 1), (1, 1), (2, 2), (0, 2)]
cliques:  0 mip: 0
iterações: 27 cortes cliques encontrados: 3 mip: 1030 objective:  24.999999999999996
Coin0506I Presolve 65 (-61) rows, 39 (-25) columns and 202 (-86) elements
Clp1000I sum of infeasibilities 3.24924e-06 - average 4.99884e-08, 0 fixed columns
Coin0506I Presolve 65 (0) rows, 39 (0) columns and 202 (0) elements
Clp0029I End of values pass after 39 iterations
Clp0000I Optimal - objective value 15
Clp0000I Optimal - objective value 15
Coin0511I After Postsolve, objective 15, infeasibilities - dual 0 (0), primal 0 (0)
Clp0000I Optimal - objective value 15
Clp0000I Optimal - objective value 15
Clp0000I Optimal - objective value 15
Coin0511I After Postsolve, objective 15, infeasibilities - dual 0 (0), primal 0 (0)
Clp0032I Optimal objective 15 - 0 iterations time 0.002, Presolve 0.00, Idiot 0.00
Coin3009W Conflict graph built in 0.000 seconds, density: 0.147%
